
Log started (V11.0.0) Fri May 16 12:53:23 2008

Tried aggregator 1 time.
Reduced MIP has 240 rows, 8001 columns, and 16040 nonzeros.
Presolve time =    0.05 sec.
Clique table members: 200.
MIP emphasis: balance optimality and feasibility.
MIP search method: dynamic search.
Parallel mode: none, using 1 thread.
Root relaxation solution time =    0.33 sec.

        Nodes                                         Cuts/
   Node  Left     Objective  IInf  Best Integer     Best Node    ItCnt     Gap

*     0+    0                        16756.0000      142.2806      580   99.15%
*     0+    0                          200.0000      142.2806      580   28.86%
      0     0      143.0000    72      200.0000      Fract: 5      615   28.50%
*     0+    0                          198.0000      143.0000      615   27.78%
      0     0      143.7300    70      198.0000       Cuts: 2      698   27.41%
*     0+    0                          195.0000      143.7300      698   26.29%
      0     0      148.1441    70      195.0000      Cuts: 25     1018   24.03%
*     0+    0                          187.0000      148.1441     1018   20.78%
      0     0      148.3257    83      187.0000       Cuts: 7     1080   20.68%
*     0+    0                          178.0000      148.3257     1080   16.67%
      0     0      148.3257    83      178.0000       Cuts: 3     1095   16.67%
*     0+    0                          175.0000      148.3257     1095   15.24%
      0     0      148.5862    84      175.0000       Cuts: 5     1148   15.09%
      0     0      148.5864    94      175.0000       Cuts: 6     1187   15.09%
*     0+    0                          173.0000      148.5864     1187   14.11%
*     0+    0                          172.0000      148.5864     1187   13.61%
*     0+    0                          171.0000      148.5864     1187   13.11%
*     0+    0                          170.0000      148.5864     1187   12.60%
*     0+    0                          160.0000      148.5864     1187    7.13%
      0     2      149.0000    81      160.0000      148.5864     1187    7.13%
    100    94      150.0000    51      160.0000      149.0000     5194    6.87%
*   200+  182                          159.0000      149.0000     7428    6.29%
    200   184      151.0000    44      159.0000      149.0000     7428    6.29%
    300   250      151.0000    42      159.0000      149.0000    12587    6.29%
    400   319      151.0000    47      159.0000      149.0000    16158    6.29%
*   476+  242                          158.0000      153.9598    20877    2.56%
    500   247      155.0000    49      158.0000      154.1305    21183    2.45%
    600   272      157.0000    21      158.0000      154.1305    23683    2.45%
    700   254    infeasible            158.0000      154.1305    26673    2.45%
    800   202    infeasible            158.0000      154.2226    29824    2.39%
    900   214    infeasible            158.0000      154.2226    32559    2.39%
   1000   216    infeasible            158.0000      154.2226    34857    2.39%
Elapsed time =  44.19 sec. (tree size =  1.38 MB, solutions = 14)
   1100   216        cutoff            158.0000      155.0000    42451    1.90%
*  1156+   42                          157.0000      156.0000    47528    0.64%
   1200    62    infeasible            157.0000      156.0000    48692    0.64%
   1300    68      156.0000    41      157.0000      156.0000    51166    0.64%
   1400    81      156.0000    36      157.0000      156.0000    54222    0.64%
   1500    91      156.0000    38      157.0000      156.0000    57119    0.64%
   1600    97      156.0000    40      157.0000      156.0000    59343    0.64%
   1700   107      156.0000    51      157.0000      156.0000    61548    0.64%
   1800   117    infeasible            157.0000      156.0000    63917    0.64%
   1900   119    infeasible            157.0000      156.0000    66707    0.64%
   2000   121    infeasible            157.0000      156.0000    69160    0.64%
Elapsed time =  67.75 sec. (tree size =  0.86 MB, solutions = 15)
   2100   141      156.0000    37      157.0000      156.0000    71922    0.64%
   2200   149      156.0000    44      157.0000      156.0000    75142    0.64%
   2300   149    infeasible            157.0000      156.0000    77222    0.64%
   2400   155      156.0000    35      157.0000      156.0000    79104    0.64%
   2500   161    infeasible            157.0000      156.0000    80998    0.64%
   2600   171      156.0000    34      157.0000      156.0000    83676    0.64%
   2700   179    infeasible            157.0000      156.0000    85790    0.64%
   2800   185      156.0000    35      157.0000      156.0000    88501    0.64%
   2900   187      156.0000    34      157.0000      156.0000    91809    0.64%
   3000   169    infeasible            157.0000      156.0000    95088    0.64%
Elapsed time =  84.52 sec. (tree size =  1.23 MB, solutions = 15)
   3100    69    infeasible            157.0000      156.0000   104387    0.64%

Cover cuts applied:  118
Implied bound cuts applied:  25
Mixed integer rounding cuts applied:  7
Gomory fractional cuts applied:  1

Solution pool: 15 solutions saved.

MIP - Integer optimal solution:  Objective = 1.5700000000e+002
Solution time =   88.64 sec.  Iterations = 107385  Nodes = 3172


Incumbent solution
Variable Name           Solution Value
Cmax                        157.000000
X_1_23                        1.000000
X_2_22                        1.000000
X_3_5                         1.000000
X_4_5                         1.000000
X_5_11                        1.000000
X_6_30                        1.000000
X_7_7                         1.000000
X_8_30                        1.000000
X_9_32                        1.000000
X_10_21                       1.000000
X_11_5                        1.000000
X_12_10                       1.000000
X_13_20                       1.000000
X_14_17                       1.000000
X_15_22                       1.000000
X_16_24                       1.000000
X_17_22                       1.000000
X_18_39                       1.000000
X_19_20                       1.000000
X_20_6                        1.000000
X_21_33                       1.000000
X_22_16                       1.000000
X_23_5                        1.000000
X_24_9                        1.000000
X_25_30                       1.000000
X_26_22                       1.000000
X_27_4                        1.000000
X_28_30                       1.000000
X_29_15                       1.000000
X_30_22                       1.000000
X_31_22                       1.000000
X_32_34                       1.000000
X_33_22                       1.000000
X_34_13                       1.000000
X_35_31                       1.000000
X_36_24                       1.000000
X_37_7                        1.000000
X_38_15                       1.000000
X_39_35                       1.000000
X_40_7                        1.000000
X_41_24                       1.000000
X_42_4                        1.000000
X_43_30                       1.000000
X_44_7                        1.000000
X_45_31                       1.000000
X_46_30                       1.000000
X_47_36                       1.000000
X_48_12                       1.000000
X_49_37                       1.000000
X_50_22                       1.000000
X_51_35                       1.000000
X_52_22                       1.000000
X_53_7                        1.000000
X_54_16                       1.000000
X_55_9                        1.000000
X_56_10                       1.000000
X_57_30                       1.000000
X_58_22                       1.000000
X_59_22                       1.000000
X_60_4                        1.000000
X_61_22                       1.000000
X_62_5                        1.000000
X_63_14                       1.000000
X_64_38                       1.000000
X_65_30                       1.000000
X_66_3                        1.000000
X_67_24                       1.000000
X_68_30                       1.000000
X_69_22                       1.000000
X_70_16                       1.000000
X_71_34                       1.000000
X_72_1                        1.000000
X_73_3                        1.000000
X_74_1                        1.000000
X_75_10                       1.000000
X_76_3                        1.000000
X_77_16                       1.000000
X_78_3                        1.000000
X_79_30                       1.000000
X_80_30                       1.000000
X_81_7                        1.000000
X_82_20                       1.000000
X_83_22                       1.000000
X_84_34                       1.000000
X_85_5                        1.000000
X_86_22                       1.000000
X_87_7                        1.000000
X_88_8                        1.000000
X_89_6                        1.000000
X_90_30                       1.000000
X_91_5                        1.000000
X_92_2                        1.000000
X_93_22                       1.000000
X_94_27                       1.000000
X_95_1                        1.000000
X_96_2                        1.000000
X_97_16                       1.000000
X_98_35                       1.000000
X_99_22                       1.000000
X_100_5                       1.000000
X_101_26                      1.000000
X_102_16                      1.000000
X_103_22                      1.000000
X_104_6                       1.000000
X_105_24                      1.000000
X_106_30                      1.000000
X_107_24                      1.000000
X_108_30                      1.000000
X_109_20                      1.000000
X_110_20                      1.000000
X_111_20                      1.000000
X_112_22                      1.000000
X_113_16                      1.000000
X_114_5                       1.000000
X_115_19                      1.000000
X_116_5                       1.000000
X_117_7                       1.000000
X_118_22                      1.000000
X_119_24                      1.000000
X_120_22                      1.000000
X_121_24                      1.000000
X_122_5                       1.000000
X_123_10                      1.000000
X_124_18                      1.000000
X_125_4                       1.000000
X_126_38                      1.000000
X_127_3                       1.000000
X_128_2                       1.000000
X_129_22                      1.000000
X_130_2                       1.000000
X_131_22                      1.000000
X_132_36                      1.000000
X_133_22                      1.000000
X_134_5                       1.000000
X_135_24                      1.000000
X_136_4                       1.000000
X_137_22                      1.000000
X_138_22                      1.000000
X_139_15                      1.000000
X_140_7                       1.000000
X_141_18                      1.000000
X_142_26                      1.000000
X_143_22                      1.000000
X_144_26                      1.000000
X_145_30                      1.000000
X_146_6                       1.000000
X_147_40                      1.000000
X_148_28                      1.000000
X_149_17                      1.000000
X_150_16                      1.000000
X_151_16                      1.000000
X_152_6                       1.000000
X_153_3                       1.000000
X_154_26                      1.000000
X_155_29                      1.000000
X_156_1                       1.000000
X_157_6                       1.000000
X_158_30                      1.000000
X_159_25                      1.000000
X_160_22                      1.000000
X_161_29                      1.000000
X_162_15                      1.000000
X_163_10                      1.000000
X_164_5                       1.000000
X_165_30                      1.000000
X_166_22                      1.000000
X_167_19                      1.000000
X_168_1                       1.000000
X_169_30                      1.000000
X_170_38                      1.000000
X_171_7                       1.000000
X_172_30                      1.000000
X_173_8                       1.000000
X_174_5                       1.000000
X_175_40                      1.000000
X_176_22                      1.000000
X_177_7                       1.000000
X_178_27                      1.000000
X_179_13                      1.000000
X_180_18                      1.000000
X_181_32                      1.000000
X_182_22                      1.000000
X_183_6                       1.000000
X_184_22                      1.000000
X_185_6                       1.000000
X_186_22                      1.000000
X_187_30                      1.000000
X_188_9                       1.000000
X_189_24                      1.000000
X_190_22                      1.000000
X_191_38                      1.000000
X_192_22                      1.000000
X_193_28                      1.000000
X_194_30                      1.000000
X_195_34                      1.000000
X_196_7                       1.000000
X_197_16                      1.000000
X_198_25                      1.000000
X_199_1                       1.000000
X_200_14                      1.000000
All other variables in the range 1-8001 are 0.
